GPU_version/outputs/r103.out
Total number of lines in the file: 110
Total number of nodes including depot: 101
Customer 1: (35, 35), Demand: 0, Time Window: [0, 230], Service Time: 0
Customer 2: (41, 49), Demand: 10, Time Window: [0, 204], Service Time: 10
Customer 3: (35, 17), Demand: 7, Time Window: [0, 202], Service Time: 10
Customer 4: (55, 45), Demand: 13, Time Window: [0, 197], Service Time: 10
Customer 5: (55, 20), Demand: 19, Time Window: [149, 159], Service Time: 10
calling MST kernel
Post Processing Route
Post 2 opt Processing Route
2-opt between 9 and 10 improved cost from 2105.97 to 2098.74
Elapsed time: 0.639748 seconds
Final Route: 
Route #1: 28 53 58 
Route #2: 13 94 
Route #3: 6 89 95 97 
Route #4: 92 59 99 5 60 18 52 83 
Route #5: 8 82 7 
Route #6: 88 31 70 
Route #7: 30 20 66 
Route #8: 62 10 90 32 63 
Route #9: 11 19 48 47 
Route #10: 36 49 
Route #11: 64 46 
Route #12: 45 84 17 93 
Route #13: 85 91 61 16 86 
Route #14: 44 38 14 96 37 98 100 
Route #15: 87 
Route #16: 42 2 57 
Route #17: 15 43 
Route #18: 40 26 12 80 
Route #19: 68 77 
Route #20: 76 50 1 
Route #21: 69 3 79 
Route #22: 78 34 
Route #23: 33 81 9 71 
Route #24: 65 35 51 
Route #25: 29 24 54 55 25 
Route #26: 21 73 72 74 
Route #27: 22 
Route #28: 41 75 56 
Route #29: 39 67 
Route #30: 23 4 
Route #31: 27 
Route #32: Total Distance: 2105.97
Final route is valid
