outputs/r103.txt.out
filename: R103
Vehicles: 25, Capacity: 200
Total customers : 101
No of routes: 29
Route #1: 28 53 58
Route #2: 13 94
Route #3: 89 6 95 97
Route #4: 92 37 100 98
Route #5: 99 93 59
Route #6: 85 61 16 44 14
Route #7: 91 38 86 5 60 18 52
Route #8: 83 8 46 47 48 82
Route #9: 36 49
Route #10: 64 7
Route #11: 88 31 70
Route #12: 30 20 66
Route #13: 62 19 11 10 63 90 32
Route #14: 84 45 17 96
Route #15: 87 57 2
Route #16: 15 43
Route #17: 40 42 74 72 73 21
Route #18: 22
Route #19: 41 75 56
Route #20: 23 4
Route #21: 39 67 26 12 80
Route #22: 68 77
Route #23: 76 50 1
Route #24: 69 79 3
Route #25: 33 81 9 71 35
Route #26: 65 51
Route #27: 78 34 29 24 54
Route #28: 55 25
Route #29: 27
Cost 1954
